269,107
406,131
611,309
778,336
1020,160
681,226
593,285
597,322
765,490
912,860
927,745
598,662
539,452
681,436
690,347
839,188
820,-21
363,88
977,452
1041,766
1055,596
1036,462
469,618
654,459
672,465
660,385
681,196
727,110
487,265
311,286
